width = 37;

n_circuits = 27;

circuit_x = array1d(1..27, [3, 3, 3, 3, 3, 3, 3, 3, 3, 3, 3, 3, 3, 3, 4, 4, 4, 4,
    4, 4, 4, 5, 5, 5, 5, 5, 12]);

circuit_y = array1d(1..27, [3, 4, 5, 6, 7, 8, 9, 11, 12, 13, 14, 17, 18, 21, 3, 4,
    5, 6, 10, 22, 24, 3, 4, 6, 10, 14, 37]);

opt_height = 37;

max_y = 37;

